NAME : portcgen-24-19
COMMENT : portcgen N=24, seed=19
TYPE : TSP
DIMENSION : 24
EDGE_WEIGHT_TYPE : EUC_2D
NODE_COORD_SECTION
1 -48059 -164877
2 -179987 51519
3 50698 336450
4 -288150 130779
5 -208235 -67197
6 20808 -76579
7 357207 -54594
8 441219 78280
9 5342 -84781
10 175987 127874
11 -404250 181039
12 -182769 52738
13 -32781 -486974
14 -147416 147693
15 -260094 -3128
16 111731 22774
17 -130541 -241324
18 -193987 35224
19 217651 318364
20 -495539 -4729
21 96029 -128791
22 -548584 -201088
23 142499 51053
24 397131 686752
